NAME : morphed22-2-8
COMMENT : Generated using the function morphInstances from the R-package netgen (Bossek,2015) - Number of clusters: 2 Alpha: 0.5
TYPE : TSP
DIMENSION : 22
EDGE_WEIGHT_TYPE : EUC_2D
NODE_COORD_SECTION
1 28.4493608846 76.6364752591
2 12.8703362751 50.8661156169
3 86.6053261873 65.2280825441
4 73.2184361832 83.5575789466
5 56.2885765935 21.2307800075
6 84.4765021156 59.9851473081
7 16.6717773474 71.3931064474
8 93.8540252916 72.2685864958
9 82.6402806517 25.8650977016
10 80.9064083478 56.6854445355
11 29.1229610641 96.0310261377
12 5.5464732475 51.9581369983
13 67.1171421616 42.4567647097
14 70.2629722336 39.3166735594
15 10.3202468011 94.9837467376
16 94.9212081339 77.5867534775
17 0.4909698755 68.5055091537
18 18.3117128421 82.5595812632
19 14.3247492469 94.3999238626
20 73.6465459409 37.4374297179
21 13.1985369932 69.3155598189
22 23.8267483302 93.2414795595
EOF
